(declare-fun e () String)
(declare-fun c () String)
(declare-fun b () String)
(declare-fun d () String)
(declare-fun f () String)
(declare-fun a () String)
(declare-fun h () String)
(assert (= (str.++ e f "a") (str.++ b b "d" c "a")))
(assert (= (str.++ f h) (str.++ d "e")))
(assert (= "ah" a))

(check-sat)
